1 51 2
-466 -885 -580 -988 -499 -51 -116 -793 -140 -291 -847 -541 -53 -26 -976 -884 -859 -229 -944 -621 -756 -513 -347 -66 -259 -804 -576 -173 -28 -467 -450 -792 -856 -268 -409 -449 -190 -298 -643 -333 -966 -1 -854 -860 -219 -447 -904 -421 -786 -169 0 
-915 -714 -631 -323 -576 -264 -60 -862 -223 -912 -27 -257 -270 -682 -968 -422 -640 -8 -919 -417 -886 -341 -370 -855 -357 -625 -996 -442 -779 -686 -250 -239 -352 -131 -604 -513 -616 -19 -209 -692 -803 -204 -434 -629 -808 -211 -9 -455 -920 -281 0 
244 720 811 466 944 64 881 845 368 213 833 688 861 654 747 947 791 944 786 312 307 992 596 988 129 144 164 671 306 65 595 575 571 712 219 287 267 101 980 203 34 412 950 628 165 918 229 318 69 579 1 
13146 
